30 30
1 1
1 6
7 1
6 8
2 2
5 4
10 6
5 10
10 4
10 9
2 1
8 6
4 10
8 3
1 8
7 3
7 5
6 8
4 2
5 7
8 5
5 3
4 2
9 7
4 3
1 3
8 5
5 6
8 6
1 5
18 13 50
16 12 85
20 13 76
11 12 59
17 13 73
19 13 70
12 13 74
16 12 86
14 19 89
10 19 79
14 12 73
19 11 69
11 19 81
19 15 70
13 14 81
11 17 65
11 14 51
20 20 71
16 11 90
17 15 63
12 13 73
13 18 100
13 13 77
17 18 82
18 19 61
13 18 63
11 19 92
10 14 68
14 19 74
13 13 78
